language ESSENCE' 1.0
letting AssignmentMatrix be [[0, 0, 0, 1, 1, 0, 0, 1, 1, 0, 1, 0, 0, 0, 1, 0, 1, 0, 1], 
[0, 1, 0, 0, 1, 0, 0, 1, 0, 0, 0, 1, 1, 1, 0, 0, 0, 0, 0], 
[0, 0, 0, 0, 0, 0, 0, 0, 0, 0, 0, 0, 0, 0, 0, 0, 0, 0, 0], 
[0, 0, 0, 0, 0, 1, 0, 0, 0, 1, 0, 0, 0, 0, 0, 1, 0, 0, 0], 
[0, 0, 1, 0, 0, 0, 1, 0, 0, 0, 0, 0, 0, 0, 0, 0, 0, 0, 0]]
letting CPU be [46, 2, 4, 2, 4, 4, 4, 4, 2, 4, 2, 2, 2, 4, 2, 4, 2, 33, 4]
letting Memory be [244012, 3750, 7500, 3750, 15000, 7500, 7500, 15000, 3750, 7500, 3750, 3750, 3750, 7500, 3750, 7500, 3750, 488230, 7500]
letting Price be [1, 116, 210, 116, 350, 210, 210, 350, 116, 210, 116, 116, 116, 210, 116, 210, 128, 5, 210]
letting Storage be [12012, 2000, 2000, 2000, 4000, 2000, 2000, 4000, 2000, 2000, 2000, 2000, 2000, 2000, 2000, 2000, 2000, 12230, 2000]
letting VMType be [1, 433, 341, 433, 316, 341, 341, 316, 433, 341, 433, 433, 433, 341, 433, 341, 461, 1, 341]
